certificates/rado_a15_c69_N61.drat
-55 8 -61 0
-59 -61 0
55 -60 -61 0
-55 -61 0
d -55 8 -61 0
-8 -61 0
d -8 -10 -61 0
-61 0
55 0
-1 0
7 0
-43 0
-19 0
3 0
-27 0
-31 0
-39 0
6 0
-24 0
-42 0
-30 0
-34 0
-28 0
5 0
4 0
-11 0
-49 0
-41 0
-13 0
-9 0
-29 0
-26 0
-12 0
-10 0
-25 0
-40 0
-8 0
-14 0
-15 0
-16 0
-46 0
2 0
0
